
%FILE DATA:	Soccer Computational Problem for MiniZinc Models	%
%AUTHOR:	Jack Wall	%
%CONTACT:  	116397063@umail.ucc.ie			%
%LAST UPDATE:	03/03/2020, 16:21:29						%
%DESCRIPTION: 	60 games played with 30 games left				%


n=10; %number of teams

%Games to play
games=[|9,4|8,2|9,1|6,9|8,6|1,9|9,3|1,6|7,2|2,6|2,10|1,7|3,1|10,3|3,8|5,3|3,4|7,9|4,2|3,7|10,8|6,8|1,8|1,2|9,2|10,6|10,9|4,7|8,10|8,1|];

%Initial points
iPoints=[16,21,11,21,17,6,18,13,19,21];

%POSITION CONSTRAINTS
% [|teamID, operator, position|...]
% operators index:
%  1 for =  operator
%  2 for >  operator
%  3 for >= operator
%  4 for <  operator
%  5 for <= operator
positionConstraints=[|2,5,1|9,5,2|1,5,3|4,2,3|10,3,5|];